60
2 1 9
3 1 4
4 0 8
4 2 7
5 0 3
5 2 1
6 0 2
6 2 3
6 3 8
6 5 9
7 1 4
7 2 9
7 4 1
8 0 4
8 2 8
8 4 6
8 6 9
8 7 8
9 5 9
9 6 9
9 8 5
10 1 1
10 2 2
10 3 5
10 4 6
10 5 3
10 6 8
10 9 7
11 0 6
11 2 9
11 3 9
11 10 3
12 0 4
12 6 7
12 10 4
13 2 6
13 3 5
13 4 2
13 5 3
13 6 2
13 9 6
13 10 6
13 12 9
14 0 9
14 1 9
14 3 3
14 5 1
14 9 5
14 10 7
14 12 9
15 1 1
15 2 4
15 3 9
15 4 3
15 6 2
15 7 6
15 10 1
15 11 8
15 13 1
16 1 1
16 3 1
16 4 5
16 5 8
16 6 2
16 7 9
16 8 6
16 10 6
16 11 5
16 13 2
17 1 7
17 2 7
17 3 9
17 4 8
17 7 1
17 13 9
18 1 4
18 3 5
18 4 1
18 7 2
18 8 1
18 11 7
18 14 4
18 15 4
18 16 1
18 17 1
19 0 2
19 3 2
19 6 5
19 8 9
19 11 6
19 12 2
19 15 1
19 16 7
19 17 2
20 2 6
20 4 3
20 6 2
20 8 6
20 9 2
20 10 3
20 11 8
21 3 8
21 6 3
21 8 7
21 9 4
21 11 8
21 17 1
21 19 5
21 20 7
22 1 2
22 2 1
22 3 1
22 5 8
22 6 7
22 8 9
22 10 9
22 11 1
22 12 6
22 14 8
22 16 6
23 1 2
23 3 4
23 5 6
23 8 2
23 9 1
23 12 9
23 13 6
23 17 7
23 19 1
23 21 9
23 22 9
24 1 9
24 3 9
24 5 6
24 6 9
24 8 9
24 9 7
24 10 9
24 13 8
24 14 6
24 18 7
24 19 4
24 21 8
24 22 5
25 0 9
25 4 7
25 7 4
25 9 9
25 10 3
25 11 4
25 13 3
25 15 9
25 19 9
25 22 8
26 0 5
26 3 2
26 7 3
26 8 9
26 10 8
26 12 4
26 14 6
26 15 6
26 16 6
26 17 9
26 19 7
26 21 5
26 22 3
26 23 3
26 25 6
27 0 8
27 2 3
27 8 9
27 10 4
27 11 6
27 15 2
27 16 2
27 18 6
27 19 5
27 20 2
27 21 5
27 25 4
27 26 4
28 0 7
28 1 8
28 3 6
28 4 5
28 6 7
28 7 7
28 9 8
28 11 6
28 12 9
28 16 3
28 17 2
28 18 8
28 19 9
28 21 1
28 25 5
28 26 5
28 27 1
29 1 2
29 3 9
29 4 4
29 8 6
29 10 8
29 13 1
29 15 3
29 20 8
29 21 3
29 24 6
29 26 7
29 27 1
30 1 3
30 2 9
30 4 3
30 5 9
30 6 6
30 7 5
30 12 4
30 14 5
30 15 3
30 17 5
30 18 5
30 19 7
30 20 5
30 24 6
30 25 3
30 26 1
30 27 4
30 29 6
31 6 6
31 8 9
31 9 2
31 10 9
31 11 4
31 12 6
31 15 1
31 16 1
31 17 4
31 22 6
31 23 7
31 25 5
31 27 5
31 29 7
32 1 3
32 2 3
32 3 2
32 6 5
32 7 2
32 8 5
32 9 2
32 10 2
32 11 1
32 13 1
32 15 6
32 16 7
32 17 2
32 18 2
32 19 7
32 23 1
32 30 9
32 31 9
33 0 8
33 3 6
33 6 3
33 7 1
33 8 9
33 9 3
33 10 1
33 13 8
33 15 8
33 16 5
33 19 4
33 21 2
33 22 3
33 23 7
33 24 3
33 25 9
33 26 2
33 27 5
33 28 7
33 29 7
33 30 8
33 31 5
34 0 1
34 1 7
34 3 2
34 4 5
34 6 7
34 7 5
34 8 6
34 12 7
34 15 6
34 18 3
34 20 4
34 24 4
34 26 3
34 28 1
34 30 6
34 31 9
34 32 5
35 0 9
35 1 5
35 2 5
35 3 9
35 4 5
35 5 9
35 6 2
35 10 1
35 14 2
35 15 4
35 16 1
35 17 7
35 18 6
35 19 3
35 20 9
35 21 1
35 22 8
35 24 9
35 25 2
35 27 7
35 29 2
35 32 5
36 1 4
36 3 4
36 5 2
36 7 1
36 11 8
36 15 9
36 16 7
36 17 1
36 19 2
36 20 2
36 21 7
36 23 5
36 25 3
36 27 8
36 31 9
36 32 5
36 33 1
37 0 8
37 5 8
37 11 6
37 12 7
37 14 1
37 15 3
37 17 8
37 22 2
37 23 5
37 24 7
37 25 3
37 27 2
37 28 8
37 29 7
37 33 5
37 34 9
38 3 5
38 6 8
38 8 1
38 10 6
38 11 1
38 13 3
38 15 4
38 19 8
38 21 8
38 24 1
38 25 2
38 29 4
38 30 6
38 33 1
38 36 6
38 37 4
39 1 8
39 3 6
39 4 6
39 6 6
39 7 6
39 10 6
39 15 4
39 16 4
39 18 1
39 21 6
39 22 8
39 23 1
39 29 2
39 34 2
39 36 1
39 37 2
40 1 9
40 6 6
40 8 8
40 9 9
40 10 9
40 11 7
40 12 8
40 22 5
40 23 5
40 24 3
40 25 1
40 26 6
40 27 3
40 28 2
40 29 8
40 30 3
40 32 7
40 33 9
40 35 4
40 36 3
40 37 7
40 38 1
41 3 7
41 6 7
41 7 1
41 8 6
41 10 5
41 11 1
41 12 5
41 13 9
41 14 9
41 15 3
41 17 3
41 18 3
41 20 3
41 22 3
41 23 8
41 24 8
41 26 1
41 28 8
41 32 3
41 33 8
41 34 5
41 36 1
42 4 8
42 6 7
42 8 7
42 9 7
42 13 1
42 15 6
42 16 5
42 18 6
42 19 1
42 21 1
42 22 6
42 23 3
42 24 5
42 28 9
42 29 3
42 31 8
42 32 7
42 33 8
42 37 8
42 38 5
42 39 8
43 0 5
43 4 7
43 6 3
43 7 5
43 10 5
43 11 3
43 13 2
43 20 7
43 21 8
43 22 3
43 25 3
43 28 9
43 29 3
43 32 2
43 33 4
43 35 2
43 40 9
43 41 3
44 1 1
44 2 4
44 3 4
44 7 4
44 8 2
44 9 2
44 10 1
44 11 4
44 12 3
44 14 3
44 16 5
44 17 8
44 18 8
44 20 2
44 23 3
44 24 2
44 28 5
44 33 6
44 35 6
44 37 1
45 4 6
45 5 6
45 6 5
45 10 8
45 12 2
45 18 3
45 19 2
45 20 3
45 21 6
45 22 6
45 23 2
45 24 7
45 25 9
45 29 3
45 32 9
45 36 3
45 38 7
45 42 9
45 43 4
45 44 3
46 0 5
46 3 7
46 4 4
46 7 8
46 8 6
46 9 8
46 15 8
46 16 9
46 18 5
46 19 5
46 20 2
46 21 7
46 22 8
46 31 8
46 33 9
46 34 6
46 35 3
46 36 5
46 37 7
46 39 4
46 40 6
46 41 8
46 44 2
46 45 6
47 0 3
47 2 7
47 5 5
47 7 3
47 11 1
47 12 3
47 13 6
47 15 7
47 18 9
47 21 2
47 24 4
47 29 9
47 30 4
47 31 4
47 34 8
47 35 1
47 37 4
47 39 9
47 42 9
47 43 7
47 45 5
48 0 5
48 1 4
48 2 5
48 4 3
48 5 7
48 6 9
48 10 5
48 11 5
48 13 8
48 16 9
48 19 8
48 21 7
48 22 4
48 25 6
48 27 4
48 28 2
48 29 8
48 32 1
48 34 3
48 36 7
48 39 8
48 42 3
48 43 8
49 1 3
49 4 7
49 8 4
49 9 7
49 10 3
49 15 4
49 16 1
49 22 4
49 26 7
49 27 4
49 28 9
49 29 7
49 32 1
49 34 1
49 35 7
49 38 5
49 40 5
49 41 6
49 42 5
49 45 8
49 46 6
50 0 9
50 2 4
50 4 3
50 5 3
50 7 6
50 9 2
50 13 9
50 20 1
50 22 6
50 23 3
50 24 8
50 26 8
50 27 1
50 28 9
50 32 8
50 33 2
50 34 4
50 35 4
50 36 4
50 38 7
50 41 5
50 43 8
50 46 3
50 47 1
50 48 1
50 49 9
51 0 6
51 2 5
51 4 2
51 5 3
51 6 1
51 10 4
51 12 4
51 13 5
51 15 4
51 16 6
51 18 1
51 19 5
51 20 9
51 22 1
51 23 1
51 24 3
51 25 1
51 26 1
51 28 9
51 29 9
51 32 3
51 34 5
51 35 3
51 37 7
51 41 6
51 43 9
51 44 8
51 45 4
51 48 9
51 50 7
52 0 2
52 1 2
52 5 4
52 8 5
52 11 6
52 14 2
52 16 7
52 20 7
52 22 5
52 27 2
52 29 9
52 30 3
52 32 4
52 33 2
52 34 1
52 35 8
52 37 6
52 38 3
52 39 6
52 41 4
52 44 8
52 45 9
52 46 4
52 50 3
53 1 6
53 2 9
53 3 3
53 6 9
53 8 7
53 10 1
53 11 7
53 12 9
53 14 4
53 17 4
53 19 4
53 21 2
53 23 6
53 25 7
53 26 3
53 28 5
53 29 7
53 30 6
53 32 4
53 33 3
53 34 4
53 35 7
53 36 8
53 39 2
53 40 7
53 41 9
53 42 7
53 44 2
53 46 8
53 48 5
53 52 5
54 3 9
54 4 9
54 6 7
54 7 4
54 8 4
54 10 6
54 11 7
54 12 8
54 13 3
54 14 3
54 15 1
54 16 3
54 17 4
54 18 8
54 19 3
54 20 6
54 21 2
54 28 4
54 29 9
54 30 4
54 32 8
54 33 6
54 36 7
54 37 9
54 38 6
54 40 1
54 45 1
54 48 1
54 49 2
54 52 9
54 53 5
55 0 6
55 1 5
55 2 2
55 6 2
55 8 5
55 10 8
55 14 9
55 15 1
55 17 6
55 18 4
55 20 5
55 21 4
55 23 2
55 24 4
55 25 2
55 26 1
55 28 3
55 31 9
55 32 9
55 37 3
55 40 6
55 41 8
55 44 6
55 45 3
55 46 6
55 48 8
55 54 6
56 3 6
56 4 1
56 5 1
56 10 7
56 11 6
56 12 5
56 14 6
56 15 8
56 18 3
56 19 6
56 21 6
56 22 7
56 24 6
56 26 7
56 28 3
56 29 5
56 32 6
56 34 4
56 35 8
56 38 7
56 39 2
56 40 8
56 42 3
56 43 7
56 47 6
56 48 4
56 50 4
56 51 1
56 52 7
56 53 5
56 55 1
57 5 7
57 6 4
57 7 7
57 8 2
57 9 7
57 10 4
57 11 9
57 13 1
57 20 6
57 23 2
57 26 9
57 27 2
57 29 4
57 30 8
57 32 5
57 34 8
57 35 5
57 38 1
57 39 4
57 42 3
57 44 3
57 48 6
57 49 8
57 51 7
58 0 3
58 2 8
58 3 6
58 4 2
58 5 7
58 6 6
58 8 1
58 9 8
58 15 6
58 17 2
58 19 3
58 20 4
58 21 2
58 23 1
58 27 2
58 29 2
58 30 2
58 31 9
58 34 5
58 36 4
58 40 6
58 43 1
58 44 4
58 46 1
58 47 8
58 50 1
58 51 8
58 52 4
59 0 8
59 1 1
59 2 7
59 3 3
59 4 2
59 5 1
59 6 4
59 7 1
59 8 8
59 12 1
59 14 5
59 15 6
59 16 9
59 21 2
59 22 6
59 24 2
59 28 4
59 30 8
59 34 7
59 35 3
59 36 3
59 37 4
59 38 9
59 39 4
59 40 5
59 43 5
59 45 4
59 46 9
59 47 5
59 48 3
59 50 3
59 51 9
59 55 4
59 57 9
